\ Model Routes
\ LP format - for model browsing. Use MPS format to capture full model detail.
Maximize
  - 191.7153353028244 R{0,0} + 623.2046552982704 R{0,1}
   + 623.2046552982704 R{0,2} - 249.2301939667805 R{0,3}
   - 223.5191598158195 R{0,4} + 876.4702428658231 R{0,5}
   + 876.4702428658231 R{0,6} + 856.51395045497 R{0,7}
   + 510.5253299541002 R{0,8} + 702.6720326730414 R{0,9}
   + 923.8644386511348 R{0,10} + 35.31540277219722 R{0,11}
   + 991.8964955769145 R{0,12} - 256.140831891889 R{1,0}
   + 41.44651618699046 R{1,1} + 468.947430945026 R{1,2}
   + 886.7355560582841 R{1,3} + 525.1229571397182 R{1,4}
   + 79.23743184435932 R{1,5} + 905.210853968432 R{1,6}
   + 832.5788021882154 R{1,7} + 1198.881248318718 R{2,0}
   + 1198.881248318718 R{2,1} - 278.4443928850388 R{2,2}
   + 96.64804243541232 R{2,3} + 1554.55142910273 R{2,4}
   + 947.5724883564153 R{2,5} + 892.6424592665308 R{2,6}
   + 725.2351538442874 R{2,7} + 124.111107645844 R{2,8}
   + 947.5724883564153 R{2,9} + 947.5724883564153 R{2,10}
   + 998.2340423763969 R{2,11} + 1462.756221938219 R{2,12}
   - 260.2482995389823 R{3,0} + 701.3067653295128 R{3,1}
   + 1230.485940651614 R{3,2} + 940.2346328741708 R{3,3}
   + 687.1402661508429 R{3,4} + 1356.752085019187 R{3,5}
   + 1066.500777241743 R{3,6} + 1103.754304968768 R{3,7}
   + 1212.439507277819 R{3,8} + 933.9651209851472 R{3,9}
   + 714.0963249317199 R{3,10} - 242.5208875955131 R{4,0}
   + 1138.167312495808 R{4,1} + 1454.744895582121 R{4,2}
   + 1035.629651818014 R{4,3} + 1176.730401867391 R{4,4}
   + 883.4841299475297 R{4,5} + 972.1227040542983 R{4,6}
   + 1162.349473881372 R{4,7} + 1176.730401867391 R{4,8}
   + 1176.730401867391 R{4,9} - 231.9775664337766 R{5,0}
   + 357.5804114360171 R{5,1} + 942.0446328252956 R{5,2}
   + 402.6776551787916 R{5,3} + 402.6776551787916 R{5,4}
   + 130.3159053000199 R{5,5} + 449.5753034408256 R{5,6}
   - 231.1436095783099 R{6,0} + 1156.908798910079 R{6,1}
   + 1261.37446502248 R{6,2} + 1776.966048938017 R{6,3}
   + 2368.455654983323 R{6,4} + 910.6969890871076 R{6,5}
   + 2110.551366029405 R{6,6} + 518.6616879264634 R{6,7}
   + 1311.778040288267 R{6,8} + 517.220400046893 R{6,9}
   + 731.672756034422 R{6,10} + 909.2557012075372 R{6,11}
   + 1586.96746915571 R{6,12} + 1376.370908913522 R{6,13}
   + 781.7248774467521 R{6,14} + 517.220400046893 R{6,15}
   + 1937.855846115945 R{6,16} + 1310.336752408697 R{6,17}
   + 737.0647576941847 R{6,18} + 1480.836575025924 R{6,19}
Subject To
 R00: R{0,0} <= 1
 R01: R{0,1} <= 1
 R02: R{0,2} <= 1
 R03: R{0,3} <= 1
 R04: R{0,4} <= 1
 R05: R{0,5} <= 1
 R06: R{0,6} <= 1
 R07: R{0,7} <= 1
 R08: R{0,8} <= 1
 R09: R{0,9} <= 1
 R010: R{0,10} <= 1
 R011: R{0,11} <= 1
 R012: R{0,12} <= 1
 R013: R{1,0} <= 1
 R014: R{1,1} <= 1
 R015: R{1,2} <= 1
 R016: R{1,3} <= 1
 R017: R{1,4} <= 1
 R018: R{1,5} <= 1
 R019: R{1,6} <= 1
 R020: R{1,7} <= 1
 R021: R{2,0} <= 1
 R022: R{2,1} <= 1
 R023: R{2,2} <= 1
 R024: R{2,3} <= 1
 R025: R{2,4} <= 1
 R026: R{2,5} <= 1
 R027: R{2,6} <= 1
 R028: R{2,7} <= 1
 R029: R{2,8} <= 1
 R030: R{2,9} <= 1
 R031: R{2,10} <= 1
 R032: R{2,11} <= 1
 R033: R{2,12} <= 1
 R034: R{3,0} <= 1
 R035: R{3,1} <= 1
 R036: R{3,2} <= 1
 R037: R{3,3} <= 1
 R038: R{3,4} <= 1
 R039: R{3,5} <= 1
 R040: R{3,6} <= 1
 R041: R{3,7} <= 1
 R042: R{3,8} <= 1
 R043: R{3,9} <= 1
 R044: R{3,10} <= 1
 R045: R{4,0} <= 1
 R046: R{4,1} <= 1
 R047: R{4,2} <= 1
 R048: R{4,3} <= 1
 R049: R{4,4} <= 1
 R050: R{4,5} <= 1
 R051: R{4,6} <= 1
 R052: R{4,7} <= 1
 R053: R{4,8} <= 1
 R054: R{4,9} <= 1
 R055: R{5,0} <= 1
 R056: R{5,1} <= 1
 R057: R{5,2} <= 1
 R058: R{5,3} <= 1
 R059: R{5,4} <= 1
 R060: R{5,5} <= 1
 R061: R{5,6} <= 1
 R062: R{6,0} <= 1
 R063: R{6,1} <= 1
 R064: R{6,2} <= 1
 R065: R{6,3} <= 1
 R066: R{6,4} <= 1
 R067: R{6,5} <= 1
 R068: R{6,6} <= 1
 R069: R{6,7} <= 1
 R070: R{6,8} <= 1
 R071: R{6,9} <= 1
 R072: R{6,10} <= 1
 R073: R{6,11} <= 1
 R074: R{6,12} <= 1
 R075: R{6,13} <= 1
 R076: R{6,14} <= 1
 R077: R{6,15} <= 1
 R078: R{6,16} <= 1
 R079: R{6,17} <= 1
 R080: R{6,18} <= 1
 R081: R{6,19} <= 1
 R1_0: R{0,0} + R{0,1} + R{0,2} + R{0,3} + R{0,4} + R{0,5} + R{0,6}
   + R{0,7} + R{0,8} + R{0,9} + R{0,10} + R{0,11} + R{0,12} <= 1
 R1_1: R{1,0} + R{1,1} + R{1,2} + R{1,3} + R{1,4} + R{1,5} + R{1,6}
   + R{1,7} <= 1
 R1_2: R{2,0} + R{2,1} + R{2,2} + R{2,3} + R{2,4} + R{2,5} + R{2,6}
   + R{2,7} + R{2,8} + R{2,9} + R{2,10} + R{2,11} + R{2,12} <= 1
 R1_3: R{3,0} + R{3,1} + R{3,2} + R{3,3} + R{3,4} + R{3,5} + R{3,6}
   + R{3,7} + R{3,8} + R{3,9} + R{3,10} <= 1
 R1_4: R{4,0} + R{4,1} + R{4,2} + R{4,3} + R{4,4} + R{4,5} + R{4,6}
   + R{4,7} + R{4,8} + R{4,9} <= 1
 R1_5: R{5,0} + R{5,1} + R{5,2} + R{5,3} + R{5,4} + R{5,5} + R{5,6} <= 1
 R1_6: R{6,0} + R{6,1} + R{6,2} + R{6,3} + R{6,4} + R{6,5} + R{6,6}
   + R{6,7} + R{6,8} + R{6,9} + R{6,10} + R{6,11} + R{6,12} + R{6,13}
   + R{6,14} + R{6,15} + R{6,16} + R{6,17} + R{6,18} + R{6,19} <= 1
 R2_0: <= 0
 R2_1: 10 R{0,11} + 10 R{3,1} + 10 R{3,2} + 10 R{3,5} + 10 R{3,7}
   + 10 R{3,8} + 10 R{3,10} <= 10
 R2_2: <= 0
 R2_3: 4 R{0,4} + 4 R{0,5} + 4 R{0,6} + 4 R{0,10} + 4 R{6,2} + 4 R{6,3}
   + 4 R{6,5} + 4 R{6,7} + 4 R{6,8} + 4 R{6,9} + 4 R{6,10} + 4 R{6,11}
   + 4 R{6,14} + 4 R{6,15} + 4 R{6,17} + 4 R{6,18} + 4 R{6,19} <= 4
 R2_4: <= 0
 R2_5: 5 R{0,4} + 5 R{0,5} + 5 R{0,6} + 5 R{5,5} + 5 R{5,6} <= 5
 R2_6: 10 R{1,1} + 10 R{1,5} <= 10
 R2_7: 6 R{1,1} + 6 R{1,2} + 6 R{1,3} + 6 R{1,4} + 6 R{1,5} + 6 R{1,6}
   <= 6
 R2_8: <= 0
 R2_9: 12 R{4,1} + 12 R{4,2} + 12 R{4,3} + 12 R{4,4} + 12 R{4,5}
   + 12 R{4,7} + 12 R{4,8} + 12 R{4,9} <= 12
 R2_10: <= 8
 R2_11: <= 0
 R2_12: <= 0
 R2_13: <= 0
 R2_14: <= 0
 R2_15: 11 R{0,0} + 11 R{0,1} + 11 R{0,2} + 11 R{0,9} + 11 R{0,12}
   + 11 R{4,1} + 11 R{4,2} + 11 R{4,4} + 11 R{4,8} + 11 R{4,9} <= 11
 R2_16: <= 0
 R2_17: 11 R{6,10} <= 11
 R2_18: <= 0
 R2_19: 11 R{6,1} + 11 R{6,2} + 11 R{6,3} + 11 R{6,4} + 11 R{6,5}
   + 11 R{6,6} + 11 R{6,8} + 11 R{6,11} + 11 R{6,13} + 11 R{6,14}
   + 11 R{6,16} + 11 R{6,17} + 11 R{6,18} + 11 R{6,19} <= 11
 R2_20: 13 R{2,4} + 13 R{2,6} + 13 R{2,11} + 13 R{4,1} + 13 R{4,2}
   + 13 R{4,4} + 13 R{4,7} + 13 R{4,8} + 13 R{4,9} <= 13
 R2_21: <= 0
 R2_22: <= 0
 R2_23: 14 R{0,1} + 14 R{0,2} + 14 R{2,0} + 14 R{2,1} + 14 R{2,5}
   + 14 R{2,9} + 14 R{2,10} + 14 R{2,12} + 14 R{6,4} <= 14
 R2_24: 10 R{3,1} + 10 R{3,2} + 10 R{3,3} + 10 R{3,7} + 10 R{3,8}
   + 10 R{3,10} <= 10
 R2_25: 13 R{4,1} + 13 R{4,2} + 13 R{4,3} + 13 R{4,4} + 13 R{4,5}
   + 13 R{4,7} + 13 R{4,8} + 13 R{4,9} <= 13
 R2_26: 6 R{2,4} + 6 R{2,6} + 6 R{2,11} + 6 R{5,1} + 6 R{5,2} + 6 R{5,3}
   + 6 R{5,4} + 6 R{5,5} + 6 R{5,6} <= 6
 R2_27: 5 R{0,5} + 5 R{0,6} + 5 R{0,7} + 5 R{0,8} + 5 R{0,10} + 5 R{6,1}
   + 5 R{6,2} + 5 R{6,3} + 5 R{6,4} + 5 R{6,5} + 5 R{6,6} + 5 R{6,7}
   + 5 R{6,8} + 5 R{6,9} + 5 R{6,10} + 5 R{6,11} + 5 R{6,12} + 5 R{6,13}
   + 5 R{6,14} + 5 R{6,15} + 5 R{6,16} + 5 R{6,17} + 5 R{6,18} + 5 R{6,19}
   <= 5
 R2_28: <= 0
 R2_29: <= 0
 R2_30: <= 0
 R2_31: <= 0
 R2_32: 7 R{2,3} + 7 R{2,8} <= 7
 R2_33: <= 0
 R2_34: <= 0
 R2_35: 13 R{6,14} + 13 R{6,18} <= 13
 R2_36: <= 0
 R2_37: 5 R{3,1} + 5 R{3,2} + 5 R{3,3} + 5 R{3,4} + 5 R{3,5} + 5 R{3,6}
   + 5 R{3,7} + 5 R{3,8} + 5 R{3,10} <= 5
 R2_38: <= 0
 R2_39: <= 0
 R2_40: 15 R{2,3} + 15 R{2,4} + 15 R{2,6} + 15 R{2,8} + 15 R{2,11} <= 15
 R2_41: 5 R{0,8} + 5 R{1,3} + 5 R{1,6} + 5 R{1,7} + 5 R{3,5} + 5 R{3,6}
   + 5 R{3,9} + 5 R{4,6} + 5 R{6,6} + 5 R{6,13} + 5 R{6,19} <= 5
 R2_42: 4 R{2,3} + 4 R{2,8} + 4 R{2,11} <= 4
 R2_43: <= 0
 R2_44: <= 0
 R2_45: <= 0
 R2_46: 9 R{0,9} + 9 R{0,12} + 9 R{4,6} <= 9
 R2_47: 7 R{5,1} + 7 R{5,2} + 7 R{5,3} + 7 R{5,4} + 7 R{5,5} + 7 R{5,6}
   <= 7
 R2_48: 4 R{4,1} + 4 R{4,2} + 4 R{4,3} + 4 R{4,4} + 4 R{4,5} + 4 R{4,7}
   + 4 R{4,8} + 4 R{4,9} <= 4
 R2_49: <= 0
 R2_50: <= 0
 R2_51: 11 R{4,1} + 11 R{4,2} + 11 R{4,3} + 11 R{4,4} + 11 R{4,7}
   + 11 R{4,8} + 11 R{4,9} <= 11
 R2_52: 10 R{4,6} <= 10
 R2_53: 13 R{4,1} + 13 R{4,4} + 13 R{4,7} + 13 R{4,8} + 13 R{4,9} <= 13
 R2_54: 9 R{3,1} + 9 R{3,2} + 9 R{3,3} + 9 R{3,4} + 9 R{3,5} + 9 R{3,6}
   + 9 R{3,8} + 9 R{3,9} + 9 R{3,10} <= 9
 R2_55: 8 R{6,1} + 8 R{6,2} + 8 R{6,3} + 8 R{6,4} + 8 R{6,6} + 8 R{6,8}
   + 8 R{6,12} + 8 R{6,13} + 8 R{6,16} + 8 R{6,17} + 8 R{6,19} <= 8
 R2_56: 6 R{2,0} + 6 R{2,1} + 6 R{2,5} + 6 R{2,7} + 6 R{2,9} + 6 R{2,10}
   + 6 R{2,12} + 6 R{4,2} + 6 R{4,3} + 6 R{4,5} <= 6
 R2_57: <= 0
 R2_58: <= 0
 R2_59: 10 R{0,12} + 10 R{2,12} <= 10
 R2_60: <= 0
 R2_61: 9 R{4,6} <= 9
 R2_62: 10 R{6,14} <= 10
 R2_63: <= 0
 R2_64: <= 0
 R2_65: 5 R{0,9} + 5 R{0,12} + 5 R{2,0} + 5 R{2,1} + 5 R{2,7} + 5 R{2,12}
   + 5 R{6,1} + 5 R{6,2} + 5 R{6,3} + 5 R{6,4} + 5 R{6,5} + 5 R{6,6}
   + 5 R{6,7} + 5 R{6,8} + 5 R{6,9} + 5 R{6,10} + 5 R{6,11} + 5 R{6,12}
   + 5 R{6,13} + 5 R{6,15} + 5 R{6,16} + 5 R{6,17} + 5 R{6,19} <= 5
 R2_66: 7 R{6,1} + 7 R{6,2} + 7 R{6,4} + 7 R{6,8} + 7 R{6,12} + 7 R{6,16}
   + 7 R{6,17} <= 7
 R2_67: 3 R{0,1} + 3 R{0,2} + 3 R{0,9} + 3 R{0,12} + 3 R{2,0} + 3 R{2,1}
   + 3 R{2,5} + 3 R{2,7} + 3 R{2,9} + 3 R{2,10} + 3 R{2,12} <= 3
 R2_68: 6 R{6,1} + 6 R{6,2} + 6 R{6,3} + 6 R{6,4} + 6 R{6,5} + 6 R{6,6}
   + 6 R{6,7} + 6 R{6,8} + 6 R{6,9} + 6 R{6,10} + 6 R{6,11} + 6 R{6,12}
   + 6 R{6,13} + 6 R{6,14} + 6 R{6,15} + 6 R{6,16} + 6 R{6,17} + 6 R{6,18}
   + 6 R{6,19} <= 6
 R2_69: 7 R{4,1} + 7 R{4,2} + 7 R{4,3} + 7 R{4,4} + 7 R{4,5} + 7 R{4,7}
   + 7 R{4,8} + 7 R{4,9} <= 7
 R2_70: 11 R{1,1} + 11 R{1,2} + 11 R{1,3} + 11 R{1,4} + 11 R{1,6} <= 11
 R2_71: 7 R{3,1} + 7 R{3,10} <= 7
 R2_72: <= 0
 R2_73: <= 0
 R2_74: 5 R{5,1} + 5 R{5,3} + 5 R{5,4} + 5 R{5,5} + 5 R{5,6} <= 5
 R2_75: <= 8
 R2_76: 12 R{2,4} + 12 R{2,6} + 12 R{2,11} + 12 R{5,1} + 12 R{5,2}
   + 12 R{5,3} + 12 R{5,4} + 12 R{5,6} <= 12
 R2_77: 7 R{0,5} + 7 R{0,6} + 7 R{0,7} + 7 R{0,10} + 7 R{1,2} + 7 R{1,3}
   + 7 R{1,4} + 7 R{1,6} + 7 R{1,7} + 7 R{2,4} + 7 R{3,2} + 7 R{3,3}
   + 7 R{3,4} + 7 R{3,5} + 7 R{3,6} + 7 R{3,7} + 7 R{3,8} + 7 R{3,9}
   + 7 R{5,2} + 7 R{6,3} + 7 R{6,4} + 7 R{6,6} + 7 R{6,12} + 7 R{6,16}
   <= 7
Bounds
End
